8 28 011
40 2 1 3 1 4 1 5 8464 6 1764 7 9 8 676 
40 1 1 3 1 4 1 5 1369 6 9025 7 400 8 16 
40 1 1 2 1 4 1 5 144 6 1369 7 7744 8 1600 
40 1 1 2 1 3 1 5 961 6 121 7 2209 8 8649 
1 1 8464 2 1369 3 144 4 961 6 1156 7 1 8 900 
1 1 1764 2 9025 3 1369 4 121 5 1156 7 576 8 25 
1 1 9 2 400 3 7744 4 2209 5 1 6 576 8 1521 
1 1 676 2 16 3 1600 4 8649 5 900 6 25 7 1521 
